c This is QMaxSAT 2017 based on 14.07
c This is Glucose 3.0
c This is MiniSat 2.2.0
c WARNING: for repeatability, setting FPU to use double precision
c card = mrwto, comp = 0, pmodel = 0, narr = 6, mct = 42, verb = 0
cr firstCPXsol 0 0 0
c top = 127531
c |  Number of variables:    4418                                             |
c |  Number of clauses:      184102                                           |
c |  Weight of hard clauses: 127531                                           |
c |  Number of soft clauses: 12792                                            |
c |  Number of unit soft clauses: 0                                           |
c |  Maximum Cardinality (by unit): 985740       (0           )               |
c last restart ## conflicts  :  0 199 
o 493 | cpuTime 0.027374 s
c Sum of weights = 164290
c A number of soft clauses remained = 2132
c MRWTO encoding for Pseudo-Boolean Constraints
c sizeMax=493
c No.0 Divisor=8	generated by pow1
c No.1 Divisor=8	generated by pow1
c No.2 Divisor=8	generated by pow1
c p0= 8	p1= 8	p2= 8	
c number of digits = 4
c linkingVar[0].size = 8, linkingVar[1].size = 8, linkingVar[2].size = 8, linkingVar[3].size = 1, 
c Pseudo-Boolean Constraints: 36816 variables and 257427 clauses
c Sum of weights = 164290
c A number of soft clauses remained = 2132
c MRWTO encoding for Pseudo-Boolean Constraints
c sizeMax=493
c No.0 Divisor=8	generated by pow1
c No.1 Divisor=8	generated by pow1
c No.2 Divisor=8	generated by pow1
c p0= 8	p1= 8	p2= 8	
c number of digits = 4
c linkingVar[0].size = 8, linkingVar[1].size = 8, linkingVar[2].size = 8, linkingVar[3].size = 1, 
c Pseudo-Boolean Constraints: 36816 variables and 257427 clauses
c Sum of weights = 164290
c A number of soft clauses remained = 2132
c MRWTO encoding for Pseudo-Boolean Constraints
c sizeMax=493
c No.0 Divisor=8	generated by pow1
c No.1 Divisor=8	generated by pow1
c No.2 Divisor=8	generated by pow1
c p0= 8	p1= 8	p2= 8	
c number of digits = 4
c linkingVar[0].size = 8, linkingVar[1].size = 8, linkingVar[2].size = 8, linkingVar[3].size = 1, 
c Pseudo-Boolean Constraints: 36816 variables and 257427 clauses
c Sum of weights = 164290
c A number of soft clauses remained = 2132
c MRWTO encoding for Pseudo-Boolean Constraints
c sizeMax=493
c No.0 Divisor=8	generated by pow1
c No.1 Divisor=8	generated by pow1
c No.2 Divisor=8	generated by pow1
c p0= 8	p1= 8	p2= 8	
c number of digits = 4
c linkingVar[0].size = 8, linkingVar[1].size = 8, linkingVar[2].size = 8, linkingVar[3].size = 1, 
c Pseudo-Boolean Constraints: 36816 variables and 257427 clauses
c Sum of weights = 164290
c A number of soft clauses remained = 2132
c MRWTO encoding for Pseudo-Boolean Constraints
c sizeMax=493
c No.0 Divisor=8	generated by pow1
c No.1 Divisor=8	generated by pow1
c No.2 Divisor=8	generated by pow1
c p0= 8	p1= 8	p2= 8	
c number of digits = 4
c linkingVar[0].size = 8, linkingVar[1].size = 8, linkingVar[2].size = 8, linkingVar[3].size = 1, 
c Pseudo-Boolean Constraints: 36816 variables and 257427 clauses
c Sum of weights = 164290
c A number of soft clauses remained = 2132
c MRWTO encoding for Pseudo-Boolean Constraints
c sizeMax=493
c No.0 Divisor=8	generated by pow1
c No.1 Divisor=8	generated by pow1
c No.2 Divisor=8	generated by pow1
c p0= 8	p1= 8	p2= 8	
c number of digits = 4
c linkingVar[0].size = 8, linkingVar[1].size = 8, linkingVar[2].size = 8, linkingVar[3].size = 1, 
c Pseudo-Boolean Constraints: 36816 variables and 257427 clauses
c last restart ## conflicts  :  104 2561 
o 471 | cpuTime 453.836 s
s UNKNOWN
c Search is stopped by a limit (maybe time-limit)
cr positiVarArr: [ | 8(1->3) | 60(1->8) | 141(1->42) | 153(1->7) | 217(1->24) | 257(1->17) | 285(2->1) | 348(3->14) | 380(4->1) | 425(5->1) | 480(6->5) | 538(7->16) | 565(8->1) | 616(9->1) | 672(10->9) | 744(11->34) | 768(12->11) | 808(13->4) | 864(14->13) | 916(15->18) | 960(16->15) | 1004(17->12) | 1058(18->19) | 1106(19->20) | 1154(20->21) | 1208(21->28) | 1267(22->40) | 1303(23->29) | 1343(24->22) | 1378(25->10) | 1451(26->36) | 1487(27->25) | 1536(28->27) | 1586(29->30) | 1641(30->38) | 1676(31->26) | 1732(32->35) | 1783(33->39) | 1822(34->31) | 1840(35->2) | 1886(36->1) | 1938(37->6) | 2011(38->32) | 2063(39->37) | 2106(40->33) | 2143(41->23) | 2208(42->41) | ]
cr the 1-th chain: [ 1->3->14->13->4->1 ] (#non-depot=4) {#cumul.=5}
cr the 2-th chain: [ 1->8->1 ] (#non-depot=1) {#cumul.=6}
cr the 3-th chain: [ 1->42->41->23->29->30->38->32->35->2->1 ] (#non-depot=9) {#cumul.=15}
cr the 4-th chain: [ 1->7->16->15->18->19->20->21->28->27->25->10->9->1 ] (#non-depot=12) {#cumul.=27}
cr the 5-th chain: [ 1->24->22->40->33->39->37->6->5->1 ] (#non-depot=8) {#cumul.=35}
cr the 6-th chain: [ 1->17->12->11->34->31->26->36->1 ] (#non-depot=7) {#cumul.=42}
c Latest Answer = 0 by 2 loops
c restarts              : 72953
c conflicts             : 20330431       (5657 /sec)
c decisions             : 92093812       (0.00 % random) (25625 /sec)
c propagations          : 32377948797    (9009126 /sec)
c conflict literals     : 1962449075     (34.73 % deleted)
c Memory used           : 647.00 MB
c CPU time              : 3593.91 s
